n = 8;
lx = 4;
ly = 4;

x = [1, 1, 1, 2, 2, 2, 2, 3];
y = [1, 2, 4, 1, 2, 3, 4, 2];

D = [[0.0, 1.0, 3.0, 1.0, 1.414, 2.236, 3.162, 2.236], [1.0, 0.0, 2.0, 1.414, 1.0, 1.414, 2.236, 2.0], [3.0, 2.0, 0.0, 3.162, 2.236, 1.414, 1.0, 2.828], [1.0, 1.414, 3.162, 0.0, 1.0, 2.0, 3.0, 1.414], [1.414, 1.0, 2.236, 1.0, 0.0, 1.0, 2.0, 1.0], [2.236, 1.414, 1.414, 2.0, 1.0, 0.0, 1.0, 1.414], [3.162, 2.236, 1.0, 3.0, 2.0, 1.0, 0.0, 2.236], [2.236, 2.0, 2.828, 1.414, 1.0, 1.414, 2.236, 0.0]];